/*********************************************
 * OPL 12.10.0.0 Data
 * Author: talra
 * Creation Date: Sep 20, 2020 at 11:53:02 PM
 *********************************************/

 num_sets = 2;
 
 L = {<1,1>, <1,2>,<2,1>,<2,2>};
 v = [1,3];
 
 E = [{<1,1>, <1,2>,<2,1>}, {<2,1>,<2,2>}];